1406
55 66 27 99 88 80 93 12 61 23 90 87 92 72 3 18 71 22 50 13 74 21 56 16 70 81 4 33 41 54 15 52 46 79 69 76 20 37 40 85 67 36 75 94 77 51 65 42 57 58 34 53 60 83 8 98 26 68 32 31 29 59 9 11 96 44 91 97 1 78 7 64 6 49 84 5 89 35 95 19 28 2 86 14 48 82 10 17 73 63 62 30 47 39 43 45 24 38 25 
